%%%mzn-stat: initTime=0.034245841
%%%mzn-stat: objective=176
%%%mzn-stat: nodes=7514
%%%mzn-stat: restarts=0
%%%mzn-stat: peakDepth=1307
%%%mzn-stat: solveTime=10.528823338
%%%mzn-stat: variables=2386
%%%mzn-stat: propagators=1995
%%%mzn-stat: failures=5532
%%%mzn-stat: propagations=468495
%%%mzn-stat: nogoods=5532
%%%mzn-stat: AverageConflictSize=30.45354302241504
%%%mzn-stat: NumUnitNogoodsLearned=175
%%%mzn-stat: AverageLearnedNogoodLength=249.7060737527115
%%%mzn-stat: AverageBacktrackAmount=0
%%%mzn-stat: AverageLbd=92.09273318872017
%%%mzn-stat-end
maxleg = 176;
succ = array1d(1..150,[111, 112, 146, 83, 149, 41, 47, 141, 77, 21, 110, 92, 140, 10, 32, 46, 137, 109, 42, 30, 129, 97, 114, 84, 31, 6, 35, 57, 148, 13, 36, 82, 150, 71, 122, 128, 26, 45, 117, 78, 131, 24, 124, 76, 132, 102, 8, 66, 145, 120, 106, 136, 95, 49, 9, 101, 85, 37, 118, 40, 115, 33, 68, 58, 144, 74, 28, 138, 62, 80, 43, 130, 20, 67, 81, 143, 25, 61, 14, 22, 108, 38, 93, 53, 86, 11, 56, 79, 15, 44, 3, 90, 126, 5, 89, 100, 116, 50, 127, 16, 63, 105, 107, 98, 75, 54, 59, 133, 99, 2, 48, 12, 19, 34, 7, 87, 125, 23, 51, 88, 96, 55, 18, 64, 123, 119, 1, 113, 139, 91, 39, 147, 52, 27, 70, 69, 4, 29, 103, 94, 73, 104, 134, 72, 65, 135, 17, 121, 142, 60]);
% time elapsed: 24.71 s
----------
==========
% time elapsed: 24.71 s
%%%mzn-stat: initTime=0.034245841
%%%mzn-stat: objective=176
%%%mzn-stat: nodes=7514
%%%mzn-stat: restarts=0
%%%mzn-stat: peakDepth=1307
%%%mzn-stat: solveTime=10.528827903
%%%mzn-stat: variables=2386
%%%mzn-stat: propagators=1995
%%%mzn-stat: failures=5532
%%%mzn-stat: propagations=468495
%%%mzn-stat: nogoods=5532
%%%mzn-stat: AverageConflictSize=30.45354302241504
%%%mzn-stat: NumUnitNogoodsLearned=175
%%%mzn-stat: AverageLearnedNogoodLength=249.7060737527115
%%%mzn-stat: AverageBacktrackAmount=0
%%%mzn-stat: AverageLbd=92.09273318872017
%%%mzn-stat-end
